103 6
27 26 27 29 26 28
1 0 0 0 0 0 0 3 2 3 4
2 2 4 6 8 1 10 3 6 7 8
2 8 3 6 5 6 5 4 5 6 7 8
7 7 5 10 6 4 5 4 103 6 7 8
1 5 3 5 1 9 7 4 9 10 11 12
4 7 5 3 5 3 8 3 10 11 12
1 8 10 2 10 9 4 3 10 11 12
3 5 7 2 8 2 8 4 9 10 11 12
8 3 4 4 1 4 7 4 13 14 15 16
1 3 8 7 5 1 1 4 13 14 15 16
1 3 9 3 9 7 2 3 13 14 15
5 8 4 6 3 8 3 3 13 14 15
10 4 4 5 10 7 10 3 17 18 19
1 10 5 10 5 5 6 4 17 18 19 20
1 3 2 8 2 10 7 4 17 18 19 20
1 9 7 8 10 2 4 3 17 18 19
4 8 3 1 3 7 1 2 21 23
1 4 8 2 5 5 8 4 21 22 23 24
6 1 5 4 3 2 10 4 21 22 23 24
4 10 6 10 4 10 3 4 21 22 23 24
1 9 9 4 5 8 10 3 25 26 27
9 4 3 6 1 1 6 4 25 26 27 28
4 7 10 10 8 10 2 3 25 27 28
1 8 6 2 7 4 3 3 25 26 27
4 6 2 4 10 4 4 3 30 31 32
3 10 2 5 9 6 1 2 30 32
1 5 6 8 5 10 6 3 29 30 31
6 4 2 1 5 5 2 2 29 31
8 5 5 2 8 7 5 3 34 35 36
3 8 2 4 5 4 5 4 33 34 35 36
2 5 8 6 5 10 9 4 33 34 35 36
1 6 5 9 1 5 8 4 33 34 35 36
2 1 1 4 6 10 3 3 37 38 39
3 9 5 2 1 9 1 4 37 38 39 40
8 2 7 6 6 10 5 4 37 38 39 40
4 3 2 9 8 6 6 3 37 38 40
9 3 10 2 3 2 4 4 41 42 43 44
4 10 4 3 8 5 7 4 41 42 43 44
2 9 2 7 8 6 1 2 43 44
1 7 10 10 3 3 5 2 43 44
1 5 8 4 1 4 3 3 45 47 48
1 7 4 4 8 2 8 2 45 47
7 1 1 1 10 4 5 3 45 47 48
4 9 3 6 3 7 10 3 45 46 47
1 10 6 1 6 3 2 3 49 50 51
1 6 5 10 4 9 7 3 49 50 52
3 4 9 4 6 9 3 4 49 50 51 52
2 3 10 3 2 2 2 3 49 50 52
1 7 5 8 6 1 4 3 53 54 56
9 3 5 5 10 9 6 3 53 54 56
1 5 10 9 10 3 10 3 54 55 56
5 8 1 2 6 1 2 4 53 54 55 56
1 4 6 9 2 4 7 3 57 59 60
1 7 1 6 7 10 7 4 57 58 59 60
7 3 9 7 1 2 5 3 57 59 60
10 4 4 5 8 4 8 4 57 58 59 60
1 1 9 1 10 2 3 3 62 63 64
1 1 3 5 10 4 8 3 62 63 64
10 10 9 9 5 4 9 4 61 62 63 64
2 5 1 9 1 3 6 4 61 62 63 64
1 10 8 1 9 2 2 4 65 66 67 68
10 5 5 3 10 5 9 4 65 66 67 68
7 5 3 6 1 5 6 3 65 66 68
1 2 4 3 8 8 6 4 65 66 67 68
1 10 3 10 9 4 4 3 69 70 72
1 1 3 8 5 9 8 4 69 70 71 72
5 4 6 10 4 1 8 3 69 70 72
6 8 6 10 6 5 8 4 69 70 71 72
3 7 2 2 6 5 2 2 74 75
1 5 6 4 7 1 10 3 73 74 75
9 2 3 1 10 1 3 4 73 74 75 76
7 2 2 8 9 10 1 3 74 75 76
1 2 6 4 10 7 8 4 77 78 79 80
3 7 1 1 1 6 2 3 78 79 80
1 9 2 8 9 6 6 3 77 78 79
3 3 9 7 7 1 2 3 77 78 79
7 6 2 7 10 8 9 4 81 82 83 84
1 3 1 6 2 7 1 3 81 82 83
1 3 3 1 3 8 2 2 82 83
6 3 1 2 9 5 9 3 82 83 84
1 1 1 9 5 1 2 3 85 87 88
4 8 1 7 2 4 7 4 85 86 87 88
3 10 7 6 4 6 9 3 85 87 88
1 1 9 4 9 3 4 4 85 86 87 88
7 6 1 9 4 5 8 3 89 90 91
6 2 3 6 1 2 6 3 89 90 91
1 4 10 8 5 6 3 3 89 91 92
5 9 4 5 2 3 8 4 89 90 91 92
1 2 9 8 9 6 10 3 94 95 96
1 8 9 2 1 1 1 3 93 94 96
1 4 9 3 7 5 8 2 93 96
9 2 5 5 8 7 7 3 94 95 96
1 6 1 7 7 6 8 2 97 99
1 10 5 2 8 7 2 2 97 99
9 2 9 1 1 3 10 3 97 98 99
1 5 6 5 2 4 2 4 97 98 99 100
6 2 2 9 1 3 2 1 102
9 6 8 6 7 5 1 2 101 102
1 3 6 10 5 5 9 1 101
1 8 5 4 3 3 8 1 101
6 3 2 4 3 2 1 1 103
1 5 5 8 10 3 10 1 103
0 0 0 0 0 0 0 0
